/* Problème */

/* Objective function */
min: +x1 +x2 +x3 +x4;

/* Constraints */
+x1 +x2 +x3 +x4 = 1;
-45 x1 +36 x2 +39 x3 -43 x4 <= 0;
+39 x1 +13 x2 -19 x3 -48 x4 <= 0;
+13 x1 -11 x2 +5 x3 -38 x4 <= 0;
+44 x1 -24 x2 -17 x3 -32 x4 <= 0;
-32 x1 +4 x2 +50 x3 -48 x4 <= 0;
+5 x1 -43 x2 +49 x3 -22 x4 <= 0;
+48 x1 +x2 -23 x3 -31 x4 <= 0;
+15 x1 -32 x2 +33 x3 -24 x4 <= 0;
+26 x1 -50 x2 +32 x3 -22 x4 <= 0;
+38 x1 -27 x2 -42 x3 +23 x4 <= 0;
+50 x1 -46 x2 +14 x3 -25 x4 <= 0;
+18 x1 -24 x2 +34 x3 -28 x4 <= 0;
+29 x1 -35 x2 -27 x3 +25 x4 <= 0;
+48 x1 -25 x2 -26 x3 +2 x4 <= 0;
+49 x1 -41 x2 -45 x3 +36 x4 <= 0;
+13 x1 -41 x2 +19 x3 +9 x4 <= 0;
-48 x1 +9 x2 +5 x3 +26 x4 <= 0;
-40 x1 -14 x2 +8 x3 +38 x4 <= 0;
-14 x1 -5 x2 -23 x3 +38 x4 <= 0;
-27 x1 -9 x2 +24 x3 +12 x4 <= 0;
-34 x1 -13 x2 +x3 +46 x4 <= 0;
+43 x1 +4 x2 -34 x3 -13 x4 <= 0;

/* Variable bounds */
x1 = 0.25;
x2 = 0.25;
x3 = 0.25;
x4 = 0.25;
